/* Objective function */
min: +y1 +y2 +y3 +y4 +y5 +y6 +y7 +y8 +y9 +y10;

/* Constraints */
+x11 +x12 +x13 +x14 +x15 +x16 +x17 +x18 +x19 +x110 = 1;
+x21 +x22 +x23 +x24 +x25 +x26 +x27 +x28 +x29 +x210 = 1;
+x31 +x32 +x33 +x34 +x35 +x36 +x37 +x38 +x39 +x310 = 1;
+x41 +x42 +x43 +x44 +x45 +x46 +x47 +x48 +x49 +x410 = 1;
+x51 +x52 +x53 +x54 +x55 +x56 +x57 +x58 +x59 +x510 = 1;
+x61 +x62 +x63 +x64 +x65 +x66 +x67 +x68 +x69 +x610 = 1;
+x71 +x72 +x73 +x74 +x75 +x76 +x77 +x78 +x79 +x710 = 1;
+x81 +x82 +x83 +x84 +x85 +x86 +x87 +x88 +x89 +x810 = 1;
+x91 +x92 +x93 +x94 +x95 +x96 +x97 +x98 +x99 +x910 = 1;
+x101 +x102 +x103 +x104 +x105 +x106 +x107 +x108 +x109 +x1010 = 1;
+2 x11 +3 x21 +25 x31 +10 x41 +13 x51 +4 x61 +8 x71 +13 x81 +12 x91 +3 x101 <= 25;
+2 x12 +3 x22 +25 x32 +10 x42 +13 x52 +4 x62 +8 x72 +13 x82 +12 x92 +3 x102 <= 25;
+2 x13 +3 x23 +25 x33 +10 x43 +13 x53 +4 x63 +8 x73 +13 x83 +12 x93 +3 x103 <= 25;
+2 x14 +3 x24 +25 x34 +10 x44 +13 x54 +4 x64 +8 x74 +13 x84 +12 x94 +3 x104 <= 25;
+2 x15 +3 x25 +25 x35 +10 x45 +13 x55 +4 x65 +8 x75 +13 x85 +12 x95 +3 x105 <= 25;
+2 x16 +3 x26 +25 x36 +10 x46 +13 x56 +4 x66 +8 x76 +13 x86 +12 x96 +3 x106 <= 25;
+2 x17 +3 x27 +25 x37 +10 x47 +13 x57 +4 x67 +8 x77 +13 x87 +12 x97 +3 x107 <= 25;
+2 x18 +3 x28 +25 x38 +10 x48 +13 x58 +4 x68 +8 x78 +13 x88 +12 x98 +3 x108 <= 25;
+2 x19 +3 x29 +25 x39 +10 x49 +13 x59 +4 x69 +8 x79 +13 x89 +12 x99 +3 x109 <= 25;
+2 x110 +3 x210 +25 x310 +10 x410 +13 x510 +4 x610 +8 x710 +13 x810 +12 x910 +3 x1010 <= 25;
+20 x11 +4 x21 +5 x31 +x41 +5 x51 +10 x61 +5 x71 +x81 +10 x91 +x101 <= 30;
+20 x12 +4 x22 +5 x32 +x42 +5 x52 +10 x62 +5 x72 +x82 +10 x92 +x102 <= 30;
+20 x13 +4 x23 +5 x33 +x43 +5 x53 +10 x63 +5 x73 +x83 +10 x93 +x103 <= 30;
+20 x14 +4 x24 +5 x34 +x44 +5 x54 +10 x64 +5 x74 +x84 +10 x94 +x104 <= 30;
+20 x15 +4 x25 +5 x35 +x45 +5 x55 +10 x65 +5 x75 +x85 +10 x95 +x105 <= 30;
+20 x16 +4 x26 +5 x36 +x46 +5 x56 +10 x66 +5 x76 +x86 +10 x96 +x106 <= 30;
+20 x17 +4 x27 +5 x37 +x47 +5 x57 +10 x67 +5 x77 +x87 +10 x97 +x107 <= 30;
+20 x18 +4 x28 +5 x38 +x48 +5 x58 +10 x68 +5 x78 +x88 +10 x98 +x108 <= 30;
+20 x19 +4 x29 +5 x39 +x49 +5 x59 +10 x69 +5 x79 +x89 +10 x99 +x109 <= 30;
+20 x110 +4 x210 +5 x310 +x410 +5 x510 +10 x610 +5 x710 +x810 +10 x910 +x1010 <= 30;
-155 y1 +x11 +x21 +x31 +x41 +x51 +x61 +x71 +x81 +x91 +x101 <= 0;
-155 y2 +x12 +x22 +x32 +x42 +x52 +x62 +x72 +x82 +x92 +x102 <= 0;
-155 y3 +x13 +x23 +x33 +x43 +x53 +x63 +x73 +x83 +x93 +x103 <= 0;
-155 y4 +x14 +x24 +x34 +x44 +x54 +x64 +x74 +x84 +x94 +x104 <= 0;
-155 y5 +x15 +x25 +x35 +x45 +x55 +x65 +x75 +x85 +x95 +x105 <= 0;
-155 y6 +x16 +x26 +x36 +x46 +x56 +x66 +x76 +x86 +x96 +x106 <= 0;
-155 y7 +x17 +x27 +x37 +x47 +x57 +x67 +x77 +x87 +x97 +x107 <= 0;
-155 y8 +x18 +x28 +x38 +x48 +x58 +x68 +x78 +x88 +x98 +x108 <= 0;
-155 y9 +x19 +x29 +x39 +x49 +x59 +x69 +x79 +x89 +x99 +x109 <= 0;
-155 y10 +x110 +x210 +x310 +x410 +x510 +x610 +x710 +x810 +x910 +x1010 <= 0;

/* Variable bounds */
y1 <= 1;
y2 <= 1;
y3 <= 1;
y4 <= 1;
y5 <= 1;
y6 <= 1;
y7 <= 1;
y8 <= 1;
y9 <= 1;
y10 <= 1;
x11 <= 1;
x12 <= 1;
x13 <= 1;
x14 <= 1;
x15 <= 1;
x16 <= 1;
x17 <= 1;
x18 <= 1;
x19 <= 1;
x110 <= 1;
x21 <= 1;
x22 <= 1;
x23 <= 1;
x24 <= 1;
x25 <= 1;
x26 <= 1;
x27 <= 1;
x28 <= 1;
x29 <= 1;
x210 <= 1;
x31 <= 1;
x32 <= 1;
x33 <= 1;
x34 <= 1;
x35 <= 1;
x36 <= 1;
x37 <= 1;
x38 <= 1;
x39 <= 1;
x310 <= 1;
x41 <= 1;
x42 <= 1;
x43 <= 1;
x44 <= 1;
x45 <= 1;
x46 <= 1;
x47 <= 1;
x48 <= 1;
x49 <= 1;
x410 <= 1;
x51 <= 1;
x52 <= 1;
x53 <= 1;
x54 <= 1;
x55 <= 1;
x56 <= 1;
x57 <= 1;
x58 <= 1;
x59 <= 1;
x510 <= 1;
x61 <= 1;
x62 <= 1;
x63 <= 1;
x64 <= 1;
x65 <= 1;
x66 <= 1;
x67 <= 1;
x68 <= 1;
x69 <= 1;
x610 <= 1;
x71 <= 1;
x72 <= 1;
x73 <= 1;
x74 <= 1;
x75 <= 1;
x76 <= 1;
x77 <= 1;
x78 <= 1;
x79 <= 1;
x710 <= 1;
x81 <= 1;
x82 <= 1;
x83 <= 1;
x84 <= 1;
x85 <= 1;
x86 <= 1;
x87 <= 1;
x88 <= 1;
x89 <= 1;
x810 <= 1;
x91 <= 1;
x92 <= 1;
x93 <= 1;
x94 <= 1;
x95 <= 1;
x96 <= 1;
x97 <= 1;
x98 <= 1;
x99 <= 1;
x910 <= 1;
x101 <= 1;
x102 <= 1;
x103 <= 1;
x104 <= 1;
x105 <= 1;
x106 <= 1;
x107 <= 1;
x108 <= 1;
x109 <= 1;
x1010 <= 1;

/* Integer definitions */
int y1,y2,y3,y4,y5,y6,y7,y8,y9,y10,x11,x12,x13,x14,x15,x16,x17,x18,x19,x110,x21,x22,x23,x24,x25,x26,x27,x28,x29,x210,x31,x32,x33,x34,x35,x36,x37,x38,x39,x310,x41,x42,x43,x44,x45,x46,x47,x48,x49,x410,x51,x52,x53,x54,x55,x56,x57,x58,x59,x510,x61,x62,x63,x64,x65,x66,x67,x68,x69,x610,x71,x72,x73,x74,x75,x76,x77,x78,x79,x710,x81,x82,x83,x84,x85,x86,x87,x88,x89,x810,x91,x92,x93,x94,x95,x96,x97,x98,x99,x910,x101,x102,x103,x104,x105,x106,x107,x108,x109,x1010;
